c User generated cnf file
p cnf 14 84
7 -1 6 0 
2 2 -7 0 
4 -14 2 0 
-2 2 5 0 
9 -14 9 0 
8 -4 12 0 
-5 10 10 0 
-9 13 7 0 
8 -14 4 0 
3 2 -14 0 
8 10 -5 0 
9 -12 7 0 
6 13 -12 0 
-12 2 7 0 
7 3 -11 0 
-8 4 6 0 
11 -13 1 0 
-5 12 10 0 
-6 9 10 0 
1 11 -5 0 
8 -5 2 0 
7 11 -2 0 
5 -9 14 0 
13 1 -12 0 
13 13 -3 0 
4 1 -13 0 
14 -8 9 0 
-12 13 6 0 
-9 5 10 0 
-6 6 3 0 
1 -12 8 0 
-8 9 11 0 
14 -6 11 0 
-7 6 3 0 
-6 7 11 0 
13 2 -11 0 
-14 8 7 0 
6 -5 4 0 
10 -14 12 0 
5 -11 1 0 
-13 11 4 0 
-2 11 8 0 
12 -3 8 0 
11 -11 14 0 
-13 2 1 0 
-7 13 2 0 
9 8 -3 0 
1 6 -12 0 
-10 14 1 0 
-11 7 11 0 
-6 11 5 0 
4 3 -10 0 
-2 14 7 0 
1 -11 1 0 
-7 8 2 0 
1 6 -6 0 
10 2 -3 0 
-2 13 4 0 
10 2 -3 0 
-9 13 12 0 
1 -1 3 0 
1 2 -11 0 
12 -10 11 0 
-12 9 13 0 
-13 3 3 0 
10 -13 11 0 
7 -3 12 0 
-14 5 1 0 
9 -4 8 0 
14 9 -5 0 
-11 9 2 0 
7 -6 11 0 
-12 1 9 0 
10 -11 14 0 
6 2 -7 0 
-7 3 9 0 
7 -9 2 0 
-4 6 1 0 
8 2 -1 0 
8 6 -9 0 
-14 12 5 0 
4 -8 5 0 
13 -14 4 0 
5 8 -10 0 
